Reproduction of the Original Problem/Instances/S1-10/S1-10-10-3-s.txt
     100      10    0.10
       2       2       3       1       3       2       1       3       3       1       7       0       4      10      15      14      12       2       8      14       2
       3       1       1       2       1       1       3       1       2       1       2      13      10      14       6       2      12      11      16      15       1
       3       1       2       3       3       1       2       3       1       1       5      12      12       5      16       4       2       2      10       8       2
       2       1       2       1       3       1       3       3       1       1      15      13      12       9      15       9      14      13      15       2       2
       3       2       1       1       2       2       1       2       1       3      15       1      13       7       7      10      12       6       0       3       2
       3       1       3       3       1       1       3       3       3       3       2       8      11       3       1       2       0       0      13       6       1
       2       2       3       1       3       3       1       2       2       1      15      11       5       3       0       5      15       2       6      10       1
       2       2       3       1       1       1       1       3       3       3       8       5       6      12       9       3       0      13      10       6       2
       1       3       1       3       3       1       1       1       1       3       7      14       6      14       7       7       7      11       5       8       2
       1       1       2       1       1       3       3       2       3       1      15       4      16      16       0      16      16       7       1       8       2
       2       3       3       3       2       1       3       3       1       2       2      11      11      12      10       9      13       3      12       3       1
       1       3       2       2       3       1       2       3       1       1      16      15       8       9       0       1       0       6      16      11       2
       3       2       2       1       2       1       2       2       2       3      14      13       7       0      12      14       5       6       3       4       2
       3       1       3       3       3       2       1       3       2       2       2      16       5      11      10      14      14       9      11       8       1
       2       3       1       1       3       1       1       2       2       2       4       2       6       6       9       3      16       5       9      15       1
       2       3       3       1       3       1       3       2       3       1      13       0      14       5       4       2       5       8       4       1       1
       2       1       3       3       3       3       1       2       2       1      14      12      12      10       8       8       2       8       9      16       2
       3       3       3       1       3       2       3       1       3       2       7       6      13       4      11       3      13       2       0      16       1
       1       2       3       2       3       2       2       1       1       3      14       3       8      11       7       8      16       0       6       0       2
       2       3       3       1       2       1       3       3       1       3       7       1      16       1       7      15      13       3      14       3       2
       2       2       2       1       3       2       1       3       1       2      14      15       7       3       0      10      13       4       8       9       1
       3       2       2       1       3       2       2       3       1       3      13       8       7      13       3       2      10       6       9      13       1
       1       1       1       1       3       3       1       3       1       2      16      16       4      16       1       8       9      14       5       3       2
       2       1       2       3       2       2       3       2       3       2       5       2      12      12       6       9       6       3      15       3       2
       3       1       2       3       2       2       3       2       3       1       0       8       6      16       3       7       9       6      11       9       1
       1       2       3       3       3       1       1       1       2       3      15      10      14       8      12       4       9       1      11       4       1
       3       3       3       2       1       2       2       3       3       3       2       8      12       7      15       4      13       5       6      13       1
       1       3       2       1       3       2       2       1       3       3      11       6      13       1       9      12      15      16      13      15       2
       3       1       1       3       1       1       1       2       1       3      14       9       0       0       0      16      12      15       4       1       1
       3       2       2       3       2       1       1       1       3       3       5      14       7       0       5      11      13      11       6       1       2
       1       1       1       2       2       2       2       2       3       2       5       2       1       5      10       1       3       3       1       0       1
       1       1       2       2       1       1       2       2       2       1       5       0       3      16       1      15       9       2       7       5       2
       2       1       1       3       1       2       3       2       1       3       1      13       5      16       7       4       2      14       2       1       1
       2       3       1       2       2       2       1       2       2       3      13      14       3      14       6      10       8      11      12      10       1
       3       3       3       2       1       2       3       2       1       3       0      14       4       1       7      16      13      11      15      10       1
       2       2       1       2       1       1       2       1       2       2      13       2      12       5       4      12       8      10       9       0       1
       3       3       3       2       2       3       3       1       1       2       1       4       0      14      11      14       8       0       7       0       2
       2       1       2       1       3       1       1       1       3       1       6       5       5      16       5      13      13      14       5      13       2
       3       3       3       1       2       3       2       1       3       1       6       0       3       7       3       8      16       1      10       1       1
       1       1       2       2       1       1       1       3       2       2       0       4       6       8       6      13      11      16      10       8       1
       3       2       1       1       2       1       2       3       1       3      16       9      13       3      16      11       8       9      13       9       2
       3       2       1       3       1       3       1       3       3       3       7       3       6      10       9       1      15      13      11       9       2
       1       2       1       2       2       3       2       1       2       2       3       7      10       4       4      14      12       4      15      10       2
       2       2       3       2       2       1       3       3       1       2       8       9      16       1       9      10      13       5       6      11       2
       1       3       1       3       2       3       3       1       3       1      15       7       6       7      10       0      15      13       5       4       2
       2       3       2       1       1       1       1       3       2       2       8      14      11       5      15      10      15      12       8       8       2
       2       1       3       2       3       2       1       2       1       3       2      13      14       6       9       7      12      16      13      10       1
       3       3       2       2       1       1       1       3       1       2      13      11       4      10       1      12       5      13      10       5       2
       2       1       3       1       2       3       1       1       2       2      14       4      11       4      13       6       9      11      12       4       2
       1       1       2       1       3       2       2       1       1       1       2       7      14      16      12       6       0      14       4      13       1
       2       2       2       2       3       1       3       1       2       2       6      10       8       8       6      15       0       7       9      14       1
       2       1       3       2       2       1       3       1       1       1       2       6       2       5      15      12      12       5      12      16       2
       2       2       1       3       2       3       2       1       2       2      16      15      10      15       5      13       5       1       8       8       2
       2       1       2       3       2       1       3       3       1       1      12       4       9      14      14      14      13       1       7      15       1
       3       2       3       1       2       2       3       2       1       2       3       0       6      11       0       2       2      16       6      12       2
       3       2       3       1       3       2       1       1       1       1       9       9       2       5       6      11      15       0      16      14       1
       1       2       2       1       3       3       1       3       2       3       8       4      13       6      15      13       0      13       9       4       1
       3       3       1       3       2       3       3       3       3       2       2      15       5       2      10      15       4       2       1       0       2
       2       2       3       2       3       2       1       1       3       3      11       6      16      11       9       7       5       7      14       8       2
       3       1       3       1       3       1       3       3       3       2       9       9       0       9       6       0       3       2      12      16       1
       1       1       1       1       2       3       1       1       2       1       1       1      11      13      14       9       5      13      13      13       1
       2       1       1       3       3       3       1       1       2       2       5      10       5      11      10      16       0       9      12       7       1
       3       1       2       3       3       1       3       2       3       3       8      13      12      16       5       2       6      16       2       4       2
       1       1       1       1       1       2       1       1       1       2      10      14      15      11       8      15      13      14      16      10       2
       2       3       3       3       3       1       2       2       1       1      16       8       1      16       2       6       8       6      13       1       2
       3       2       1       1       2       3       3       1       1       1      15      16       0       8       2      10      10      14       5      12       1
       3       2       2       2       2       2       2       2       1       2       7       0       0       4       6      13      15       7      12       5       1
       3       3       1       2       1       3       2       3       1       3      10      14       4       0       5      16       0       5      15       2       2
       2       3       3       1       2       3       1       2       1       2       6      10      12       0       4       0      12       5      12      16       2
       1       1       2       1       1       3       2       3       2       3      10      10      10       9      11       5      10       5       4      10       1
       1       2       1       1       3       1       3       1       2       2      14      10       2       7       3      10       1      15       7      13       1
       1       3       1       3       1       2       1       1       1       3      10      12       4       0      16       3      13      13       2      12       2
       1       3       3       3       2       2       2       3       2       3      12      10      13       2       6      13       8       5      13      14       2
       1       3       1       3       3       3       1       3       2       2      13       9       4      11      15      11       3       1       1      16       2
       1       3       1       1       3       3       1       3       1       3      11      10       2      14       3       4       0       3       0       3       1
       3       3       1       2       2       2       1       3       3       1       5       2      10      16      12       8       9       9       5      10       1
       2       3       1       3       2       3       1       1       1       3       3      11      12      10       8       7      10       7      14       0       1
       1       3       3       3       2       1       2       1       1       2      13      13       2       2      11       4       7       0       9      16       1
       2       3       2       2       2       3       3       1       1       2       8       0       9      13      14       3       0       3      15       9       2
       3       1       2       1       2       1       1       3       1       1       2      15       0       9      14       9       9       2      12      16       1
       1       3       3       2       2       2       3       2       2       2      11       9       1       9       4       4      12      16       0       4       2
       3       2       1       1       2       1       1       2       3       2      11      16      13      15       7       8       9       2       2       2       2
       1       1       1       2       3       1       3       2       2       1       8       7      11      12       5      15      13       0      16      11       1
       1       2       2       3       3       1       1       3       2       1      12      11       4       0       0      14       8       2       7       0       1
       3       2       2       2       1       2       3       2       3       3       3      12       7       2      10      11       1       1      10       1       2
       1       2       3       2       3       3       2       1       1       1       4       7      10       5       8       2       0       3       5       2       1
       3       2       2       3       2       1       1       2       1       3       7      15      10       6      13       8       6       5       6      13       2
       1       3       2       3       1       1       3       2       1       3       8      14      13      16       8      10      13       1      14      12       2
       3       1       2       2       2       1       3       2       1       1       0       1       1      11      15      10       5      12       3       2       1
       3       1       1       3       3       3       3       3       1       3      11       0       1      13      10      13       9       5       9       1       1
       1       3       2       2       3       2       1       2       3       3       7       3      11       8       5      13      13       7      13      11       1
       1       3       3       2       3       3       3       3       3       1      13      16      11       0       7      11       5       9       3       3       2
       2       3       1       3       1       2       1       2       3       1      16       7       4      14      12      14       4       1       0      13       2
       2       1       1       3       3       1       1       1       1       2       4       5       2      14      15      10      16      11       7       1       2
       2       1       3       1       2       2       1       2       2       3       2       6       6      13       5      13      11      15       1       6       2
       1       2       1       3       1       1       3       1       1       2      15       6      16       3       1       4       4       2      13       9       2
       2       3       1       1       3       2       3       3       1       1       0       0       7       7       1      13       3       9       0       5       1
       2       1       1       3       1       3       2       2       3       1      15       2      10      11      15      15       0       4       0       0       2
       3       3       3       3       2       1       3       1       2       1      15      10      13       4       8      16       5      13       3       0       1
       3       1       1       1       2       1       1       1       3       2      15      11      16       3       6      13       8       0      13       8       1
      24      20      21      23      22      27      24      24      20      26
      60      60      30      30      60      30      30      60      30      60
      87      55     101      80      73     116      73      77      59     112